
Gurobi 10.0.3 (linux64, gurobi_cl) logging started Thu Nov  2 12:02:25 2023

Set parameter Username
Set parameter TimeLimit to value 3600
Set parameter LogFile to value "RCPSP_998.log"
Set parameter Threads to value 32
Academic license - for non-commercial use only - expires 2024-10-30
Using license file /home/jrivera6/gurobi-licenses/v1003/compute-0-34/gurobi.lic

Gurobi Optimizer version 10.0.3 build v10.0.3rc0 (linux64)
Copyright (c) 2023, Gurobi Optimization, LLC

Read MPS format model from file RCPSP_998.mps
Reading time = 0.05 seconds
RCPSP_998: 42919 rows, 17020 columns, 134553 nonzeros

CPU model: Intel(R) Xeon(R) Gold 6130 CPU @ 2.10GHz, instruction set [SSE2|AVX|AVX2|AVX512]
Thread count: 32 physical cores, 32 logical processors, using up to 32 threads

Optimize a model with 42919 rows, 17020 columns and 134553 nonzeros
Model fingerprint: 0x5d488148
Variable types: 92 continuous, 16928 integer (16928 binary)
Coefficient statistics:
  Matrix range     [1e+00, 4e+02]
  Objective range  [1e+00, 1e+00]
  Bounds range     [1e+00, 1e+00]
  RHS range        [1e+00, 4e+02]
Found heuristic solution: objective 69.0000000
Presolve removed 6780 rows and 1089 columns (presolve time = 5s) ...
Presolve removed 14782 rows and 5461 columns
Presolve time: 7.16s
Presolved: 28137 rows, 11559 columns, 89925 nonzeros
Variable types: 91 continuous, 11468 integer (11468 binary)

Explored 0 nodes (0 simplex iterations) in 7.26 seconds (4.75 work units)
Thread count was 32 (of 32 available processors)

Solution count 1: 69 

Optimal solution found (tolerance 1.00e-04)
Best objective 6.900000000000e+01, best bound 6.900000000000e+01, gap 0.0000%

Wrote result file 'RCPSP_998.sol'

